(declare-fun tobool.not.i1.i_11_44 () (_ BitVec 1))
(declare-fun src_reg1.sroa.13.0.copyload_11_42 () (_ BitVec 64))
(declare-fun src_reg_11_21 () (_ BitVec 64))
(declare-fun src_reg1.sroa.45.0.copyload_11_41 () (_ BitVec 64))
(declare-fun src_reg_11_25 () (_ BitVec 64))
(declare-fun src_reg1.sroa.37.0.copyload_11_40 () (_ BitVec 64))
(declare-fun src_reg_11_24 () (_ BitVec 64))
(declare-fun src_reg1.sroa.34.0.copyload_11_39 () (_ BitVec 64))
(declare-fun src_reg_11_23 () (_ BitVec 64))
(declare-fun src_reg1.sroa.27.0.copyload_11_38 () (_ BitVec 64))
(declare-fun src_reg_11_22 () (_ BitVec 64))
(declare-fun src_reg_11_35 () (_ BitVec 8))
(declare-fun src_reg_11_34 () (_ BitVec 32))
(declare-fun src_reg_11_33 () (_ BitVec 32))
(declare-fun src_reg_11_32 () (_ BitVec 32))
(declare-fun src_reg_11_31 () (_ BitVec 32))
(declare-fun src_reg_11_30 () (_ BitVec 32))
(declare-fun src_reg_11_29 () (_ BitVec 32))
(declare-fun src_reg_11_28 () (_ BitVec 32))
(declare-fun src_reg_11_27 () (_ BitVec 32))
(declare-fun src_reg_11_26 () (_ BitVec 32))
(declare-fun src_reg_11_20 () (_ BitVec 64))
(declare-fun src_reg_11_19 () (_ BitVec 32))
(declare-fun src_reg_11_18 () (_ BitVec 32))
(declare-fun dst_reg_11_17 () (_ BitVec 8))
(declare-fun dst_reg_11_16 () (_ BitVec 32))
(declare-fun dst_reg_11_15 () (_ BitVec 32))
(declare-fun dst_reg_11_14 () (_ BitVec 32))
(declare-fun dst_reg_11_13 () (_ BitVec 32))
(declare-fun dst_reg_11_12 () (_ BitVec 32))
(declare-fun dst_reg_11_11 () (_ BitVec 32))
(declare-fun dst_reg_11_10 () (_ BitVec 32))
(declare-fun dst_reg_11_9 () (_ BitVec 32))
(declare-fun dst_reg_11_8 () (_ BitVec 32))
(declare-fun dst_reg_11_7 () (_ BitVec 64))
(declare-fun dst_reg_11_6 () (_ BitVec 64))
(declare-fun dst_reg_11_5 () (_ BitVec 64))
(declare-fun dst_reg_11_4 () (_ BitVec 64))
(declare-fun dst_reg_11_3 () (_ BitVec 64))
(declare-fun dst_reg_11_2 () (_ BitVec 64))
(declare-fun dst_reg_11_1 () (_ BitVec 32))
(declare-fun dst_reg_11_0 () (_ BitVec 32))
(declare-fun cmp42.i_11_51 () (_ BitVec 1))
(declare-fun or.cond85.i_11_53 () (_ BitVec 1))
(declare-fun or.cond84.i_11_50 () (_ BitVec 1))
(declare-fun or.cond83.i_11_48 () (_ BitVec 1))
(declare-fun cmp39.i_11_49 () (_ BitVec 1))
(declare-fun cmp36.not.i_11_46 () (_ BitVec 1))
(declare-fun cmp33.not.i_11_45 () (_ BitVec 1))
(declare-fun cmp42.old.i_11_55 () (_ BitVec 1))
(declare-fun or.cond86.i_11_57 () (_ BitVec 1))
(declare-fun cmp39.old.i_11_54 () (_ BitVec 1))
(declare-fun cmp125.not.i_11_89 () (_ BitVec 1))
(declare-fun or8.i.i.i1028.i_11_135 () (_ BitVec 64))
(declare-fun cond14.i8.i.i1030.i_11_137 () (_ BitVec 64))
(declare-fun shr1.i.i_11_104 () (_ BitVec 64))
(declare-fun cmp10.i.i.i1029.i_11_136 () (_ BitVec 1))
(declare-fun shr14.i.i.i_11_109 () (_ BitVec 64))
(declare-fun and7.i.i.i1027.i_11_134 () (_ BitVec 64))
(declare-fun shr19.i.i.i_11_110 () (_ BitVec 64))
(declare-fun or.i5.i.i1022.i_11_130 () (_ BitVec 64))
(declare-fun cond.i7.i.i1024.i_11_132 () (_ BitVec 64))
(declare-fun shr.i966.i_11_102 () (_ BitVec 64))
(declare-fun cmp.i6.i.i1023.i_11_131 () (_ BitVec 1))
(declare-fun and.i4.i.i1021.i_11_129 () (_ BitVec 64))
(declare-fun and.i.i.i.i.i986.i31_11_126 () (_ BitVec 64))
(declare-fun conv29.i.i.i1012.i_11_127 () (_ BitVec 32))
(declare-fun conv17.i.i.i1006.i_11_125 () (_ BitVec 32))
(declare-fun or6.i.i.i1000.i_11_123 () (_ BitVec 64))
(declare-fun conv7.i.i.i1001.i_11_124 () (_ BitVec 32))
(declare-fun and5.i.i.i999.i_11_122 () (_ BitVec 64))
(declare-fun or.i.i.i993.i_11_119 () (_ BitVec 64))
(declare-fun conv.i.i.i994.i_11_120 () (_ BitVec 32))
(declare-fun and.i.i.i992.i_11_118 () (_ BitVec 64))
(declare-fun sh_prom.i.i974.i_11_108 () (_ BitVec 64))
(declare-fun i16.i973.i_11_106 () (_ BitVec 64))
(declare-fun i14.i971.i_11_105 () (_ BitVec 64))
(declare-fun i12.i968.i_11_103 () (_ BitVec 64))
(declare-fun i11.i965.i_11_101 () (_ BitVec 64))
(declare-fun src_reg_11_209 () (_ BitVec 8))
(declare-fun src_reg_11_173 () (_ BitVec 8))
(declare-fun src_reg_11_208 () (_ BitVec 32))
(declare-fun src_reg_11_172 () (_ BitVec 32))
(declare-fun src_reg_11_207 () (_ BitVec 32))
(declare-fun src_reg_11_171 () (_ BitVec 32))
(declare-fun src_reg_11_206 () (_ BitVec 32))
(declare-fun src_reg_11_170 () (_ BitVec 32))
(declare-fun src_reg_11_205 () (_ BitVec 32))
(declare-fun src_reg_11_169 () (_ BitVec 32))
(declare-fun src_reg_11_204 () (_ BitVec 32))
(declare-fun src_reg_11_168 () (_ BitVec 32))
(declare-fun src_reg_11_203 () (_ BitVec 32))
(declare-fun src_reg_11_167 () (_ BitVec 32))
(declare-fun src_reg_11_202 () (_ BitVec 32))
(declare-fun src_reg_11_166 () (_ BitVec 32))
(declare-fun src_reg_11_201 () (_ BitVec 32))
(declare-fun src_reg_11_165 () (_ BitVec 32))
(declare-fun src_reg_11_200 () (_ BitVec 32))
(declare-fun src_reg_11_164 () (_ BitVec 32))
(declare-fun src_reg_11_199 () (_ BitVec 64))
(declare-fun src_reg_11_163 () (_ BitVec 64))
(declare-fun src_reg_11_198 () (_ BitVec 64))
(declare-fun src_reg_11_162 () (_ BitVec 64))
(declare-fun src_reg_11_197 () (_ BitVec 64))
(declare-fun src_reg_11_161 () (_ BitVec 64))
(declare-fun src_reg_11_196 () (_ BitVec 64))
(declare-fun src_reg_11_160 () (_ BitVec 64))
(declare-fun src_reg_11_195 () (_ BitVec 64))
(declare-fun src_reg_11_159 () (_ BitVec 64))
(declare-fun src_reg_11_194 () (_ BitVec 64))
(declare-fun src_reg_11_158 () (_ BitVec 64))
(declare-fun src_reg_11_193 () (_ BitVec 32))
(declare-fun src_reg_11_157 () (_ BitVec 32))
(declare-fun src_reg_11_192 () (_ BitVec 32))
(declare-fun src_reg_11_156 () (_ BitVec 32))
(declare-fun dst_reg_11_191 () (_ BitVec 8))
(declare-fun dst_reg_11_155 () (_ BitVec 8))
(declare-fun dst_reg_11_190 () (_ BitVec 32))
(declare-fun dst_reg_11_154 () (_ BitVec 32))
(declare-fun dst_reg_11_189 () (_ BitVec 32))
(declare-fun dst_reg_11_153 () (_ BitVec 32))
(declare-fun dst_reg_11_188 () (_ BitVec 32))
(declare-fun dst_reg_11_152 () (_ BitVec 32))
(declare-fun dst_reg_11_187 () (_ BitVec 32))
(declare-fun dst_reg_11_151 () (_ BitVec 32))
(declare-fun dst_reg_11_186 () (_ BitVec 32))
(declare-fun dst_reg_11_150 () (_ BitVec 32))
(declare-fun dst_reg_11_185 () (_ BitVec 32))
(declare-fun dst_reg_11_149 () (_ BitVec 32))
(declare-fun dst_reg_11_184 () (_ BitVec 32))
(declare-fun dst_reg_11_148 () (_ BitVec 32))
(declare-fun dst_reg_11_183 () (_ BitVec 32))
(declare-fun dst_reg_11_147 () (_ BitVec 32))
(declare-fun dst_reg_11_182 () (_ BitVec 32))
(declare-fun dst_reg_11_146 () (_ BitVec 32))
(declare-fun dst_reg_11_181 () (_ BitVec 64))
(declare-fun dst_reg_11_145 () (_ BitVec 64))
(declare-fun dst_reg_11_180 () (_ BitVec 64))
(declare-fun dst_reg_11_144 () (_ BitVec 64))
(declare-fun dst_reg_11_179 () (_ BitVec 64))
(declare-fun dst_reg_11_143 () (_ BitVec 64))
(declare-fun dst_reg_11_178 () (_ BitVec 64))
(declare-fun dst_reg_11_142 () (_ BitVec 64))
(declare-fun dst_reg_11_177 () (_ BitVec 64))
(declare-fun dst_reg_11_141 () (_ BitVec 64))
(declare-fun dst_reg_11_176 () (_ BitVec 64))
(declare-fun dst_reg_11_140 () (_ BitVec 64))
(declare-fun dst_reg_11_175 () (_ BitVec 32))
(declare-fun dst_reg_11_139 () (_ BitVec 32))
(declare-fun dst_reg_11_174 () (_ BitVec 32))
(declare-fun dst_reg_11_138 () (_ BitVec 32))
(assert (let ((a!1 (and (= cmp125.not.i_11_89 #b1)
                (and (= or.cond85.i_11_53 #b0) (= tobool.not.i1.i_11_44 #b1))))
      (a!2 (and (= cmp125.not.i_11_89 #b0)
                (and (= or.cond85.i_11_53 #b0) (= tobool.not.i1.i_11_44 #b1))))
      (a!3 (or (and (= or.cond86.i_11_57 #b1) (= tobool.not.i1.i_11_44 #b0))
               (and (= or.cond85.i_11_53 #b1) (= tobool.not.i1.i_11_44 #b1))))
      (a!4 (and (= #x00000001 src_reg_11_156)
                (= src_reg_11_19 src_reg_11_157)
                (= src_reg_11_20 src_reg_11_158)
                (= src_reg_11_21 src_reg_11_159)
                (= src_reg_11_22 src_reg_11_160)
                (= src_reg_11_23 src_reg_11_161)
                (= src_reg_11_24 src_reg_11_162)
                (= src_reg_11_25 src_reg_11_163)
                (= src_reg_11_26 src_reg_11_164)
                (= src_reg_11_27 src_reg_11_165)
                (= src_reg_11_28 src_reg_11_166)
                (= src_reg_11_29 src_reg_11_167)
                (= src_reg_11_30 src_reg_11_168)
                (= src_reg_11_31 src_reg_11_169)
                (= src_reg_11_32 src_reg_11_170)
                (= src_reg_11_33 src_reg_11_171)
                (= src_reg_11_34 src_reg_11_172)
                (= src_reg_11_35 src_reg_11_173)
                (= #x00000001 dst_reg_11_138)
                (= dst_reg_11_1 dst_reg_11_139)
                (= #x0000000000000000 dst_reg_11_140)
                (= #xffffffffffffffff dst_reg_11_141)
                (= #x8000000000000000 dst_reg_11_142)
                (= #x7fffffffffffffff dst_reg_11_143)
                (= #x0000000000000000 dst_reg_11_144)
                (= #xffffffffffffffff dst_reg_11_145)
                (= #x80000000 dst_reg_11_146)
                (= #x7fffffff dst_reg_11_147)
                (= #x00000000 dst_reg_11_148)
                (= #xffffffff dst_reg_11_149)
                (= #x00000000 dst_reg_11_150)
                (= #x00000000 dst_reg_11_151)
                (= #x00000000 dst_reg_11_152)
                (= dst_reg_11_15 dst_reg_11_153)
                (= dst_reg_11_16 dst_reg_11_154)
                (= #x01 dst_reg_11_155)))
      (a!8 (=> (and (= or.cond85.i_11_53 #b0) (= tobool.not.i1.i_11_44 #b1))
               (and (ite (bvult src_reg1.sroa.45.0.copyload_11_41
                                #x0000000000000040)
                         (= cmp125.not.i_11_89 #b1)
                         (= cmp125.not.i_11_89 #b0)))))
      (a!9 (=> (= tobool.not.i1.i_11_44 #b0)
               (and (ite (bvsgt src_reg1.sroa.27.0.copyload_11_38
                                src_reg1.sroa.34.0.copyload_11_39)
                         (= cmp39.old.i_11_54 #b1)
                         (= cmp39.old.i_11_54 #b0))
                    (ite (bvugt src_reg1.sroa.37.0.copyload_11_40
                                src_reg1.sroa.45.0.copyload_11_41)
                         (= cmp42.old.i_11_55 #b1)
                         (= cmp42.old.i_11_55 #b0))
                    (ite (= cmp39.old.i_11_54 #b1)
                         (= or.cond86.i_11_57 #b1)
                         (= or.cond86.i_11_57 cmp42.old.i_11_55)))))
      (a!10 (=> (= tobool.not.i1.i_11_44 #b1)
                (and (ite (distinct src_reg1.sroa.27.0.copyload_11_38
                                    src_reg1.sroa.34.0.copyload_11_39)
                          (= cmp33.not.i_11_45 #b1)
                          (= cmp33.not.i_11_45 #b0))
                     (ite (distinct src_reg1.sroa.37.0.copyload_11_40
                                    src_reg1.sroa.45.0.copyload_11_41)
                          (= cmp36.not.i_11_46 #b1)
                          (= cmp36.not.i_11_46 #b0))
                     (ite (= cmp33.not.i_11_45 #b1)
                          (= or.cond83.i_11_48 #b1)
                          (= or.cond83.i_11_48 cmp36.not.i_11_46))
                     (ite (bvsgt src_reg1.sroa.27.0.copyload_11_38
                                 src_reg1.sroa.34.0.copyload_11_39)
                          (= cmp39.i_11_49 #b1)
                          (= cmp39.i_11_49 #b0))
                     (= or.cond84.i_11_50
                        (bvor cmp39.i_11_49 or.cond83.i_11_48))
                     (ite (bvugt src_reg1.sroa.37.0.copyload_11_40
                                 src_reg1.sroa.45.0.copyload_11_41)
                          (= cmp42.i_11_51 #b1)
                          (= cmp42.i_11_51 #b0))
                     (ite (= or.cond84.i_11_50 #b1)
                          (= or.cond85.i_11_53 #b1)
                          (= or.cond85.i_11_53 cmp42.i_11_51))))))
(let ((a!5 (and (=> a!1
                    (and (= #x00000001 src_reg_11_156)
                         (= src_reg_11_19 src_reg_11_157)
                         (= src_reg_11_20 src_reg_11_158)
                         (= src_reg_11_21 src_reg_11_159)
                         (= src_reg_11_22 src_reg_11_160)
                         (= src_reg_11_23 src_reg_11_161)
                         (= src_reg_11_24 src_reg_11_162)
                         (= src_reg_11_25 src_reg_11_163)
                         (= src_reg_11_26 src_reg_11_164)
                         (= src_reg_11_27 src_reg_11_165)
                         (= src_reg_11_28 src_reg_11_166)
                         (= src_reg_11_29 src_reg_11_167)
                         (= src_reg_11_30 src_reg_11_168)
                         (= src_reg_11_31 src_reg_11_169)
                         (= src_reg_11_32 src_reg_11_170)
                         (= src_reg_11_33 src_reg_11_171)
                         (= src_reg_11_34 src_reg_11_172)
                         (= src_reg_11_35 src_reg_11_173)
                         (= #x00000001 dst_reg_11_138)
                         (= dst_reg_11_1 dst_reg_11_139)
                         (= shr14.i.i.i_11_109 dst_reg_11_140)
                         (= shr19.i.i.i_11_110 dst_reg_11_141)
                         (= cond.i7.i.i1024.i_11_132 dst_reg_11_142)
                         (= cond14.i8.i.i1030.i_11_137 dst_reg_11_143)
                         (= shr14.i.i.i_11_109 dst_reg_11_144)
                         (= and.i.i.i.i.i986.i31_11_126 dst_reg_11_145)
                         (= conv.i.i.i994.i_11_120 dst_reg_11_146)
                         (= conv7.i.i.i1001.i_11_124 dst_reg_11_147)
                         (= conv17.i.i.i1006.i_11_125 dst_reg_11_148)
                         (= conv29.i.i.i1012.i_11_127 dst_reg_11_149)
                         (= dst_reg_11_12 dst_reg_11_150)
                         (= dst_reg_11_13 dst_reg_11_151)
                         (= dst_reg_11_14 dst_reg_11_152)
                         (= dst_reg_11_15 dst_reg_11_153)
                         (= dst_reg_11_16 dst_reg_11_154)
                         (= dst_reg_11_17 dst_reg_11_155)))
                (=> a!2
                    (and (= #x00000001 src_reg_11_156)
                         (= src_reg_11_19 src_reg_11_157)
                         (= src_reg_11_20 src_reg_11_158)
                         (= src_reg_11_21 src_reg_11_159)
                         (= src_reg_11_22 src_reg_11_160)
                         (= src_reg_11_23 src_reg_11_161)
                         (= src_reg_11_24 src_reg_11_162)
                         (= src_reg_11_25 src_reg_11_163)
                         (= src_reg_11_26 src_reg_11_164)
                         (= src_reg_11_27 src_reg_11_165)
                         (= src_reg_11_28 src_reg_11_166)
                         (= src_reg_11_29 src_reg_11_167)
                         (= src_reg_11_30 src_reg_11_168)
                         (= src_reg_11_31 src_reg_11_169)
                         (= src_reg_11_32 src_reg_11_170)
                         (= src_reg_11_33 src_reg_11_171)
                         (= src_reg_11_34 src_reg_11_172)
                         (= src_reg_11_35 src_reg_11_173)
                         (= #x00000001 dst_reg_11_138)
                         (= dst_reg_11_1 dst_reg_11_139)
                         (= #x0000000000000000 dst_reg_11_140)
                         (= #xffffffffffffffff dst_reg_11_141)
                         (= #x8000000000000000 dst_reg_11_142)
                         (= #x7fffffffffffffff dst_reg_11_143)
                         (= #x0000000000000000 dst_reg_11_144)
                         (= #xffffffffffffffff dst_reg_11_145)
                         (= #x80000000 dst_reg_11_146)
                         (= #x7fffffff dst_reg_11_147)
                         (= #x00000000 dst_reg_11_148)
                         (= #xffffffff dst_reg_11_149)
                         (= dst_reg_11_12 dst_reg_11_150)
                         (= dst_reg_11_13 dst_reg_11_151)
                         (= dst_reg_11_14 dst_reg_11_152)
                         (= dst_reg_11_15 dst_reg_11_153)
                         (= dst_reg_11_16 dst_reg_11_154)
                         (= dst_reg_11_17 dst_reg_11_155)))
                (=> a!3 a!4)
                (=> (and (= or.cond86.i_11_57 #b0)
                         (= tobool.not.i1.i_11_44 #b0))
                    a!4)
                (= dst_reg_11_138 dst_reg_11_174)
                (= dst_reg_11_139 dst_reg_11_175)
                (= dst_reg_11_140 dst_reg_11_176)
                (= dst_reg_11_141 dst_reg_11_177)
                (= dst_reg_11_142 dst_reg_11_178)
                (= dst_reg_11_143 dst_reg_11_179)
                (= dst_reg_11_144 dst_reg_11_180)
                (= dst_reg_11_145 dst_reg_11_181)
                (= dst_reg_11_146 dst_reg_11_182)
                (= dst_reg_11_147 dst_reg_11_183)
                (= dst_reg_11_148 dst_reg_11_184)
                (= dst_reg_11_149 dst_reg_11_185)
                (= dst_reg_11_150 dst_reg_11_186)
                (= dst_reg_11_151 dst_reg_11_187)
                (= dst_reg_11_152 dst_reg_11_188)
                (= dst_reg_11_153 dst_reg_11_189)
                (= dst_reg_11_154 dst_reg_11_190)
                (= dst_reg_11_155 dst_reg_11_191)
                (= src_reg_11_156 src_reg_11_192)
                (= src_reg_11_157 src_reg_11_193)
                (= src_reg_11_158 src_reg_11_194)
                (= src_reg_11_159 src_reg_11_195)
                (= src_reg_11_160 src_reg_11_196)
                (= src_reg_11_161 src_reg_11_197)
                (= src_reg_11_162 src_reg_11_198)
                (= src_reg_11_163 src_reg_11_199)
                (= src_reg_11_164 src_reg_11_200)
                (= src_reg_11_165 src_reg_11_201)
                (= src_reg_11_166 src_reg_11_202)
                (= src_reg_11_167 src_reg_11_203)
                (= src_reg_11_168 src_reg_11_204)
                (= src_reg_11_169 src_reg_11_205)
                (= src_reg_11_170 src_reg_11_206)
                (= src_reg_11_171 src_reg_11_207)
                (= src_reg_11_172 src_reg_11_208)
                (= src_reg_11_173 src_reg_11_209)))
      (a!7 (=> a!1
               (and (= dst_reg_11_4 i11.i965.i_11_101)
                    (= shr.i966.i_11_102
                       (bvashr i11.i965.i_11_101
                               src_reg1.sroa.37.0.copyload_11_40))
                    (= dst_reg_11_5 i12.i968.i_11_103)
                    (= shr1.i.i_11_104
                       (bvashr i12.i968.i_11_103
                               src_reg1.sroa.37.0.copyload_11_40))
                    (= dst_reg_11_2 i14.i971.i_11_105)
                    (= dst_reg_11_3 i16.i973.i_11_106)
                    (= sh_prom.i.i974.i_11_108
                       (bvand src_reg1.sroa.37.0.copyload_11_40
                              #x00000000000000ff))
                    (= shr14.i.i.i_11_109
                       (bvashr i14.i971.i_11_105 sh_prom.i.i974.i_11_108))
                    (= shr19.i.i.i_11_110
                       (bvashr i16.i973.i_11_106 sh_prom.i.i974.i_11_108))
                    (= and.i.i.i992.i_11_118
                       (bvand shr19.i.i.i_11_110 #x0000000080000000))
                    (= or.i.i.i993.i_11_119
                       (bvor and.i.i.i992.i_11_118 shr14.i.i.i_11_109))
                    (= conv.i.i.i994.i_11_120
                       ((_ extract 31 0) or.i.i.i993.i_11_119))
                    (= and5.i.i.i999.i_11_122
                       (bvand shr19.i.i.i_11_110 #x000000007fffffff))
                    (= or6.i.i.i1000.i_11_123
                       (bvor and5.i.i.i999.i_11_122 shr14.i.i.i_11_109))
                    (= conv7.i.i.i1001.i_11_124
                       ((_ extract 31 0) or6.i.i.i1000.i_11_123))
                    (= conv17.i.i.i1006.i_11_125
                       ((_ extract 31 0) shr14.i.i.i_11_109))
                    (= and.i.i.i.i.i986.i31_11_126
                       (bvor shr19.i.i.i_11_110 shr14.i.i.i_11_109))
                    (= conv29.i.i.i1012.i_11_127
                       ((_ extract 31 0) and.i.i.i.i.i986.i31_11_126))
                    (= and.i4.i.i1021.i_11_129
                       (bvand shr19.i.i.i_11_110 #x8000000000000000))
                    (= or.i5.i.i1022.i_11_130
                       (bvor and.i4.i.i1021.i_11_129 shr14.i.i.i_11_109))
                    (ite (bvsgt shr.i966.i_11_102 or.i5.i.i1022.i_11_130)
                         (= cmp.i6.i.i1023.i_11_131 #b1)
                         (= cmp.i6.i.i1023.i_11_131 #b0))
                    (ite (= cmp.i6.i.i1023.i_11_131 #b1)
                         (= cond.i7.i.i1024.i_11_132 shr.i966.i_11_102)
                         (= cond.i7.i.i1024.i_11_132 or.i5.i.i1022.i_11_130))
                    (= and7.i.i.i1027.i_11_134
                       (bvand shr19.i.i.i_11_110 #x7fffffffffffffff))
                    (= or8.i.i.i1028.i_11_135
                       (bvor and7.i.i.i1027.i_11_134 shr14.i.i.i_11_109))
                    (ite (bvslt shr1.i.i_11_104 or8.i.i.i1028.i_11_135)
                         (= cmp10.i.i.i1029.i_11_136 #b1)
                         (= cmp10.i.i.i1029.i_11_136 #b0))
                    (ite (= cmp10.i.i.i1029.i_11_136 #b1)
                         (= cond14.i8.i.i1030.i_11_137 shr1.i.i_11_104)
                         (= cond14.i8.i.i1030.i_11_137 or8.i.i.i1028.i_11_135))))))
(let ((a!6 (=> (or a!1
                   a!2
                   (and (= or.cond86.i_11_57 #b0) (= tobool.not.i1.i_11_44 #b0))
                   a!3)
               a!5)))
  (and a!6
       a!7
       a!8
       a!9
       a!10
       (= dst_reg_11_0 dst_reg_11_0)
       (= dst_reg_11_1 dst_reg_11_1)
       (= dst_reg_11_2 dst_reg_11_2)
       (= dst_reg_11_3 dst_reg_11_3)
       (= dst_reg_11_4 dst_reg_11_4)
       (= dst_reg_11_5 dst_reg_11_5)
       (= dst_reg_11_6 dst_reg_11_6)
       (= dst_reg_11_7 dst_reg_11_7)
       (= dst_reg_11_8 dst_reg_11_8)
       (= dst_reg_11_9 dst_reg_11_9)
       (= dst_reg_11_10 dst_reg_11_10)
       (= dst_reg_11_11 dst_reg_11_11)
       (= dst_reg_11_12 dst_reg_11_12)
       (= dst_reg_11_13 dst_reg_11_13)
       (= dst_reg_11_14 dst_reg_11_14)
       (= dst_reg_11_15 dst_reg_11_15)
       (= dst_reg_11_16 dst_reg_11_16)
       (= dst_reg_11_17 dst_reg_11_17)
       (= src_reg_11_18 src_reg_11_18)
       (= src_reg_11_19 src_reg_11_19)
       (= src_reg_11_20 src_reg_11_20)
       (= src_reg_11_21 src_reg_11_21)
       (= src_reg_11_22 src_reg_11_22)
       (= src_reg_11_23 src_reg_11_23)
       (= src_reg_11_24 src_reg_11_24)
       (= src_reg_11_25 src_reg_11_25)
       (= src_reg_11_26 src_reg_11_26)
       (= src_reg_11_27 src_reg_11_27)
       (= src_reg_11_28 src_reg_11_28)
       (= src_reg_11_29 src_reg_11_29)
       (= src_reg_11_30 src_reg_11_30)
       (= src_reg_11_31 src_reg_11_31)
       (= src_reg_11_32 src_reg_11_32)
       (= src_reg_11_33 src_reg_11_33)
       (= src_reg_11_34 src_reg_11_34)
       (= src_reg_11_35 src_reg_11_35)
       (= src_reg_11_22 src_reg1.sroa.27.0.copyload_11_38)
       (= src_reg_11_23 src_reg1.sroa.34.0.copyload_11_39)
       (= src_reg_11_24 src_reg1.sroa.37.0.copyload_11_40)
       (= src_reg_11_25 src_reg1.sroa.45.0.copyload_11_41)
       (= src_reg_11_21 src_reg1.sroa.13.0.copyload_11_42)
       (ite (= src_reg1.sroa.13.0.copyload_11_42 #x0000000000000000)
            (= tobool.not.i1.i_11_44 #b1)
            (= tobool.not.i1.i_11_44 #b0)))))))

;{"dst_reg":["dst_reg_11_0","dst_reg_11_1",[""],["dst_reg_11_2","dst_reg_11_3"],"dst_reg_11_4","dst_reg_11_5","dst_reg_11_6","dst_reg_11_7","dst_reg_11_8","dst_reg_11_9","dst_reg_11_10","dst_reg_11_11","dst_reg_11_12","dst_reg_11_13","","","dst_reg_11_14","dst_reg_11_15","dst_reg_11_16"],"src_reg":["src_reg_11_18","src_reg_11_19",[""],["src_reg_11_20","src_reg_11_21"],"src_reg_11_22","src_reg_11_23","src_reg_11_24","src_reg_11_25","src_reg_11_26","src_reg_11_27","src_reg_11_28","src_reg_11_29","src_reg_11_30","src_reg_11_31","","","src_reg_11_32","src_reg_11_33","src_reg_11_34"]}
;{"dst_reg":["dst_reg_11_174","dst_reg_11_175",[""],["dst_reg_11_176","dst_reg_11_177"],"dst_reg_11_178","dst_reg_11_179","dst_reg_11_180","dst_reg_11_181","dst_reg_11_182","dst_reg_11_183","dst_reg_11_184","dst_reg_11_185","dst_reg_11_186","dst_reg_11_187","","","dst_reg_11_188","dst_reg_11_189","dst_reg_11_190"],"src_reg":["src_reg_11_192","src_reg_11_193",[""],["src_reg_11_194","src_reg_11_195"],"src_reg_11_196","src_reg_11_197","src_reg_11_198","src_reg_11_199","src_reg_11_200","src_reg_11_201","src_reg_11_202","src_reg_11_203","src_reg_11_204","src_reg_11_205","","","src_reg_11_206","src_reg_11_207","src_reg_11_208"]}
